
1.0
       20.0000000000         0.0000000000         0.0000000000
        0.0000000000        20.1000003815         0.0000000000
        0.0000000000         0.0000000000        20.2000007629
    N   Ru
    2    2
Cartesian
     10.000593	11.384907	10.634173
     9.997919	11.384794	9.365782
     11.130712	9.779851	9.999884
     8.869525	9.779515	10.000123
  
