
1.0
       20.0000000000         0.0000000000         0.0000000000
        0.0000000000        20.1000003815         0.0000000000
        0.0000000000         0.0000000000        20.2000007629
    N   Ru
    2    2
Cartesian
     9.472444 	11.310245 	9.714506 
     12.148846 	9.648783 	9.097065  
     8.694383 	9.834325 	9.963186 
     11.047685 	10.013103 	10.225882  
  
