
1.0
       20.0000000000         0.0000000000         0.0000000000
        0.0000000000        20.1000003815         0.0000000000
        0.0000000000         0.0000000000        20.2000007629
    N   Ru
    2    2
Cartesian
     12.236188	10.926792	10.000547 
     7.765224	9.072006	10.000546  
     11.181285	9.720916	9.999913 
     8.81849	10.279275	9.999913  
  
