
1.0
       20.0000000000         0.0000000000         0.0000000000
        0.0000000000        20.1000003815         0.0000000000
        0.0000000000         0.0000000000        20.2000007629
    N   Ru
    2    2
Cartesian
     12.420230 	9.333074 	10.000000 
     11.298878 	9.642314 	10.000000 
     10.000000 	11.155321 	10.000000 
     9.408324 	9.007685 	10.000000 
  
