
1.0
       20.0000000000         0.0000000000         0.0000000000
        0.0000000000        20.1000003815         0.0000000000
        0.0000000000         0.0000000000        20.2000007629
    N   Ru
    2    2
Cartesian
     9.999915	8.756597	10.429896 
     10.000811	11.243597	10.429818 
     11.249553	9.999914	9.931591
     8.750331	10.000056	9.931637 
  
