
1.0
       20.0000000000         0.0000000000         0.0000000000
        0.0000000000        20.1000003815         0.0000000000
        0.0000000000         0.0000000000        20.2000007629
    N   Ru
    2    2
Cartesian
     11.951189	10.956381	10.000000   
     13.074478	10.803631	10.000000  
     9.200462	8.905348	10.000000
     10.000000	10.81465	10.000000
  
