
1.0
       20.0000000000         0.0000000000         0.0000000000
        0.0000000000        20.1000003815         0.0000000000
        0.0000000000         0.0000000000        20.2000007629
    N   Ru
    2    2
Cartesian
     9.396086	11.62627	10.000162 
     10.603641	11.62644	9.999838 
     8.895566	9.741232	9.999986 
     11.104477	9.741291	10.000014 
  
