Cu
 1.0000000000000000
    13.8029726949604203    0.0000000000000000    0.0000000000000000
     0.0000000000000000   12.1911556354641224    0.0000000000000000
     0.0000000000000000    0.0000000000000000   10.0450350136978557
 Cu 
   4
Selective dynamics
Cartesian
  5.5603180929164147  5.2876667494472844  5.5023238843071418   T   T   T
  7.7843235860340334  5.1735330024379165  4.7985197126978756   T   T   T
  6.5466227998140916  7.2747120052983911  4.7719367651429909   T   T   T
  8.8063881238728747  7.1978294489475392  5.3626414669424092   T   T   T
