Cu
 1.0000000000000000
    12.4538329077365439    0.0000000000000000    0.0000000000000000
     0.0000000000000000   12.2602746600811319    0.0000000000000000
     0.0000000000000000    0.0000000000000000   12.2577065359720692
 Cu 
   4
Selective dynamics
Cartesian
  8.8757120875409470  3.6172044027086474  7.1041544152123626   T   T   T
  9.1412423969966152  4.3097079227735753  4.9543332442571506   T   T   T
  8.6260707621799781  5.9225394931092179  6.9309063184741166   T   T   T
  7.6915451075985581  5.1200193011847741  8.8447451514525550   T   T   T
