Cu
 1.0000000000000000
    17.5225154328206933    0.0000000000000000    0.0000000000000000
     0.0000000000000000   10.0615760414637894    0.0000000000000000
     0.0000000000000000    0.0000000000000000   10.0872014669599821
 Cu 
   4
Selective dynamics
Cartesian
  4.6129683832251853  5.1494316398122981  4.9579113701549629   T   T   T
  6.8288818765052888  5.2190433420315792  4.7475493645877389   T   T   T
  9.0032792579270158  4.9731921089561624  5.1773187122966977   T   T   T
 14.5594313273153748  4.9549223368615340  5.0335242239733802   T   T   T
