Cu
 1.0000000000000000
    12.5136613486793316    0.0000000000000000    0.0000000000000000
     0.0000000000000000   12.5494130681281266    0.0000000000000000
     0.0000000000000000    0.0000000000000000   10.0676500770187580
 Cu 
   4
Selective dynamics
Cartesian
  5.0483459723367172  3.2149749157560139  5.8157919326395486   T   T   T
  6.1728989541658299  5.0774450509018925  5.2937228176118118   T   T   T
  4.9520394349995156  7.1033454121956545  5.4795245574341616   T   T   T
  7.2043694074050988  7.2069999183613138  5.1205647708159141   T   T   T
