Cu
 1.0000000000000000
    12.5136613486793316    0.0000000000000000    0.0000000000000000
     0.0000000000000000   12.5494130681281266    0.0000000000000000
     0.0000000000000000    0.0000000000000000   10.0676500770187580
 Cu 
   4
Selective dynamics
Cartesian
  4.7213508950294605  5.9098755492477935  5.3268690436956190   T   T   T
  8.0699624867057604  8.2880506888165879  5.2300098716443184   T   T   T
  2.6503608597000721  6.5580681152814746  5.3617334417111895   T   T   T
  9.3564373584835394  6.5422121399515474  5.1856759665291419   T   T   T
