Cu
 1.0000000000000000
    12.5136613486793316    0.0000000000000000    0.0000000000000000
     0.0000000000000000   12.5494130681281266    0.0000000000000000
     0.0000000000000000    0.0000000000000000   10.0676500770187580
 Cu 
   4
Selective dynamics
Cartesian
  2.1173212486031310  8.3826039832901778  4.5018957539320246   T   T   T
  8.9452888158846324  6.9772357031920373  5.0012304523931244   T   T   T
  4.2546641915400336  8.5948772888954288  4.8171904628741729   T   T   T
  7.0854366751513949  5.8550602381370416  4.9748070970319560   T   T   T
