Cu
 1.0000000000000000
    12.5136613486793316    0.0000000000000000    0.0000000000000000
     0.0000000000000000   12.5494130681281266    0.0000000000000000
     0.0000000000000000    0.0000000000000000   10.0676500770187580
 Cu 
   4
Selective dynamics
Cartesian
  5.0839316382019506  5.2606582819327112  5.0852338570201727   T   T   T
  7.4217165654932797  5.3417728231358730  4.9652509962561764   T   T   T
  3.9552390034917275  7.1656032618249919  4.9984314683433162   T   T   T
  8.4836019805506826  7.2863672503260277  4.9395464106942777   T   T   T
