Cu
 1.0000000000000000
    13.8029726949604203    0.0000000000000000    0.0000000000000000
     0.0000000000000000   12.1911556354641224    0.0000000000000000
     0.0000000000000000    0.0000000000000000   10.0450350136978557
 Cu 
   4
Selective dynamics
Cartesian
  5.0386782501076874  4.9520248151006436  4.6068416815106001   T   T   T
  8.4027874650919472  7.5788291429378019  4.6789592913693934   T   T   T
  4.0723179786261721  6.8947284117275061  4.6082882299646748   T   T   T
  9.6398922983228683  5.7999087816666801  4.7151735503976484   T   T   T
