Cu
 1.0000000000000000
    12.4538329077365439    0.0000000000000000    0.0000000000000000
     0.0000000000000000   12.2602746600811319    0.0000000000000000
     0.0000000000000000    0.0000000000000000   12.2577065359720692
 Cu 
   4
Selective dynamics
Cartesian
  4.5837122043440628  5.0880169800676232  4.0345725487127577   T   T   T
  6.6444517338961182  4.8370487437964460  5.1045547520797800   T   T   T
  5.4499221501835500  6.9511018788316861  5.1438596909479646   T   T   T
  6.4984178629698590  6.1211941043623987  7.0575422955783775   T   T   T
