Cu
 1.0000000000000000
    12.5136613486793316    0.0000000000000000    0.0000000000000000
     0.0000000000000000   12.5494130681281266    0.0000000000000000
     0.0000000000000000    0.0000000000000000   10.0676500770187580
 Cu 
   4
Selective dynamics
Cartesian
  4.9798681402541103  5.3453485804382668  4.9726218782375344   T   T   T
  7.0987394741942227  6.3586545074341920  4.9561831507480640   T   T   T
  3.1431041720554678  6.5837422656924431  4.9690687940646612   T   T   T
  9.3099133786004131  6.4941488363744542  4.9553784276048392   T   T   T
