Cu
 1.0000000000000000
    13.8029726949604203    0.0000000000000000    0.0000000000000000
     0.0000000000000000   12.1911556354641224    0.0000000000000000
     0.0000000000000000    0.0000000000000000   10.0450350136978557
 Cu 
   4
Selective dynamics
Cartesian
  4.9758747341833063  4.4691176308552940  4.1084380189422385   T   T   T
  6.9754569823081303  3.5612883539234370  4.7331293788433486   T   T   T
  6.6432488130484293  5.8854755393895823  5.0389915305165323   T   T   T
  8.0878423747900090  7.5880128019153581  4.8680429387742121   T   T   T
