Cu
 1.0000000000000000
    13.8029726949604203    0.0000000000000000    0.0000000000000000
     0.0000000000000000   12.1911556354641224    0.0000000000000000
     0.0000000000000000    0.0000000000000000   10.0450350136978557
 Cu 
   4
Selective dynamics
Cartesian
  5.5760248257267637  6.0817323907318004  5.9862175626904968   T   T   T
  7.7158806094513199  5.7725805604892582  5.0894132664754617   T   T   T
  6.5303863216811830  7.8835155685357901  4.8500383676330641   T   T   T
  8.8274644238204019  7.8257029237439175  5.2213745303357761   T   T   T
