Cu
 1.0000000000000000
    13.8029726949604203    0.0000000000000000    0.0000000000000000
     0.0000000000000000   12.1911556354641224    0.0000000000000000
     0.0000000000000000    0.0000000000000000   10.0450350136978557
 Cu 
   4
Selective dynamics
Cartesian
  6.1564424401769546  5.7676193719221835  4.6841514007045033   T   T   T
  5.6544716373117874  3.7553726982732973  5.4797171237743303   T   T   T
  7.7459512582100105  7.3887112564682740  5.2539373024185840   T   T   T
  8.6601025922742494  9.3003125324923630  5.9044571535956072   T   T   T
