Cu
 1.0000000000000000
    12.5136613486793316    0.0000000000000000    0.0000000000000000
     0.0000000000000000   12.5494130681281266    0.0000000000000000
     0.0000000000000000    0.0000000000000000   10.0676500770187580
 Cu 
   4
Selective dynamics
Cartesian
  4.1525088729498982  5.7451301379971245  6.0113059903506274   T   T   T
  8.0477889281503998  5.4026664890117964  5.3384312677056442   T   T   T
  3.5451937858338685  7.7425689823205817  5.4229350469476634   T   T   T
  8.7738240664182907  7.4377271131797524  5.1513158675686048   T   T   T
