Cu
 1.0000000000000000
    17.5225154328206933    0.0000000000000000    0.0000000000000000
     0.0000000000000000   10.0615760414637894    0.0000000000000000
     0.0000000000000000    0.0000000000000000   10.0872014669599821
 Cu 
   4
Selective dynamics
Cartesian
  4.6464459834983147  4.7225426303297935  4.9345001686449761   T   T   T
  6.8751439269064756  4.6868045703779888  4.8212352233398343   T   T   T
  8.9642758899362800  5.3625543303625118  5.2039667958523941   T   T   T
 14.5187793090412942  5.0203821812665028  5.0039408283134739   T   T   T
