Cu
 1.0000000000000000
    17.5225154328206933    0.0000000000000000    0.0000000000000000
     0.0000000000000000   10.0615760414637894    0.0000000000000000
     0.0000000000000000    0.0000000000000000   10.0872014669599821
 Cu 
   4
Selective dynamics
Cartesian
  4.6179328399979767  5.2089815702202085  5.2196810973013399   T   T   T
  6.7971494486966879  4.8603841416800337  4.9097956114639620   T   T   T
  9.0100590504331297  5.0548077816915660  5.0295776503044340   T   T   T
 14.5998202581792924  4.9899821694687256  4.9859037361296563   T   T   T
