Cu
 1.0000000000000000
    17.5225154328206933    0.0000000000000000    0.0000000000000000
     0.0000000000000000   10.0615760414637894    0.0000000000000000
     0.0000000000000000    0.0000000000000000   10.0872014669599821
 Cu 
   4
Selective dynamics
Cartesian
  4.8396900238932696  6.1635318093662770  4.9010312435918273   T   T   T
  7.0000371694599082  5.9445511961776427  4.8719741147744937   T   T   T
 10.8246997678398902  5.5612303234402063  4.9547533339178562   T   T   T
 12.9715416184575876  5.2453078450192487  4.9883809678623141   T   T   T
